26200
1 0 0 0 1 1 0 1 0 0 0 0 1 1 0 0 1 0 0 1 1 1 1 0 0 0 0 1 1 0 
7 19 21 27 21 12 21 27 22 28 4 28 13 13 28 7 13 20 22 0 27 16 5 0 20 27 27 19 4 21 19 19 4 16 27 12 20 20 16 16 7 20 12 4 20 19 13 21 19 20 0 16 21 16 20 12 7 20 22 7 4 0 7 20 13 12 5 19 28 12 7 12 19 20 5 13 20 5 20 16 13 0 20 7 4 13 19 5 27 7 28 19 7 7 0 13 28 12 0 28 28 21 12 7 4 0 4 27 22 13 19 4 27 12 12 20 28 7 0 20 20 12 28 19 4 16 21 12 19 0 28 21 12 20 5 20 13 13 28 13 12 22 12 12 7 5 16 21 27 7 27 0 5 0 20 28 5 16 13 13 13 27 13 0 5 27 5 4 13 21 5 13 19 19 4 21 0 13 4 5 5 21 21 19 12 13 28 5 0 21 21 21 19 4 7 19 7 21 5 19 
